\* Problema *\
Maximize
OBJ: 50 x1 + 30 x2 + 45 x3 + 40 x4 + 35 x5 + 129 y1 + 130 y2
Subject To
_C1: x1 + y1 <= 27
_C2: x2 + y2 <= 33
_C3: x3 + y1 + y2 <= 30
_C4: x4 + y2 <= 37
_C5: x5 + y1 <= 35
_C6: x1 + x2 + x3 + x4 + x5 + 3 y1 + 3 y2 <= 15
Bounds
 0 <= x1 <= 27
 0 <= x2 <= 33
 0 <= x3 <= 30
 0 <= x4 <= 37
 0 <= x5 <= 35
 0 <= y1 <= 27
 0 <= y2 <= 33
Generals
x1
x2
x3
x4
x5
y1
y2
End
